
Gurobi 6.5.0 (linux64) logging started Fri Jan  8 22:33:45 2016

Optimize a model with 32 rows, 24 columns and 72 nonzeros
Model has 24 quadratic objective terms
Coefficient statistics:
  Matrix range    [1e+00, 1e+00]
  Objective range [2e+05, 1e+06]
  Bounds range    [0e+00, 0e+00]
  RHS range       [0e+00, 0e+00]
Presolve removed 25 rows and 0 columns
Presolve time: 0.03s
Presolved: 7 rows, 24 columns, 42 nonzeros
Presolved model has 24 quadratic objective terms
Ordering time: 0.00s

Barrier statistics:
 AA' NZ     : 9.000e+00
 Factor NZ  : 2.800e+01
 Factor Ops : 1.400e+02 (less than 1 second per iteration)
 Threads    : 1

                  Objective                Residual
Iter       Primal          Dual         Primal    Dual     Compl     Time
   0   3.16422880e+12  3.17199949e+12  0.00e+00 6.59e+05  9.30e+08     0s
   1   3.15894254e+12  3.17199111e+12  2.27e-13 6.51e+05  3.97e+08     0s
   2   2.98663315e+12  1.18908624e+11  1.52e-11 5.38e+05  2.44e+11     0s
   3   2.87429041e+12  2.25535209e+11  2.64e-11 5.26e+05  2.29e+11     0s
   4   1.75463735e+12  3.22576566e+11  4.66e-10 4.17e+05  1.98e+11     0s
   5   2.58931509e+11 -5.13053227e+11  4.66e-10 1.61e+05  1.56e+11     0s
   6   2.43934497e+10 -1.67576980e+11  1.16e-10 7.06e+03  1.32e+10     0s
   7   1.63290795e+10  1.34400547e+10  5.82e-11 6.31e-01  1.28e+08     0s
   8   1.63268784e+10  1.63238108e+10  1.16e-10 0.00e+00  1.28e+05     0s
   9   1.63268784e+10  1.63268753e+10  1.16e-10 0.00e+00  1.28e+02     0s
  10   1.63268784e+10  1.63268784e+10  1.16e-10 2.91e-11  1.28e-01     0s
  11   1.63268784e+10  1.63268784e+10  1.16e-10 1.16e-10  1.28e-04     0s
  12   1.63268784e+10  1.63268784e+10  2.33e-10 5.82e-11  1.28e-07     0s
  13   1.63268784e+10  1.63268784e+10  1.16e-10 5.82e-11  1.28e-10     0s

Barrier solved model in 13 iterations and 0.04 seconds
Optimal objective 1.63268784e+10

Optimize a model with 32 rows, 24 columns and 72 nonzeros
Model has 24 quadratic objective terms
Coefficient statistics:
  Matrix range    [1e+00, 1e+00]
  Objective range [2e+05, 1e+06]
  Bounds range    [0e+00, 0e+00]
  RHS range       [0e+00, 0e+00]
Presolve removed 25 rows and 0 columns
Presolve time: 0.01s
Presolved: 7 rows, 24 columns, 42 nonzeros
Presolved model has 24 quadratic objective terms
Ordering time: 0.00s

Barrier statistics:
 AA' NZ     : 9.000e+00
 Factor NZ  : 2.800e+01
 Factor Ops : 1.400e+02 (less than 1 second per iteration)
 Threads    : 1

                  Objective                Residual
Iter       Primal          Dual         Primal    Dual     Compl     Time
   0   3.16422880e+12  3.17199949e+12  0.00e+00 6.59e+05  9.30e+08     0s
   1   3.15894254e+12  3.17199111e+12  2.27e-13 6.51e+05  3.97e+08     0s
   2   2.98663315e+12  1.18908624e+11  1.52e-11 5.38e+05  2.44e+11     0s
   3   2.87429041e+12  2.25535209e+11  2.64e-11 5.26e+05  2.29e+11     0s
   4   1.75463735e+12  3.22576566e+11  4.66e-10 4.17e+05  1.98e+11     0s
   5   2.58931509e+11 -5.13053227e+11  4.66e-10 1.61e+05  1.56e+11     0s
   6   2.43934497e+10 -1.67576980e+11  1.16e-10 7.06e+03  1.32e+10     0s
   7   1.63290795e+10  1.34400547e+10  5.82e-11 6.31e-01  1.28e+08     0s
   8   1.63268784e+10  1.63238108e+10  1.16e-10 0.00e+00  1.28e+05     0s
   9   1.63268784e+10  1.63268753e+10  1.16e-10 0.00e+00  1.28e+02     0s
  10   1.63268784e+10  1.63268784e+10  1.16e-10 2.91e-11  1.28e-01     0s
  11   1.63268784e+10  1.63268784e+10  1.16e-10 1.16e-10  1.28e-04     0s
  12   1.63268784e+10  1.63268784e+10  2.33e-10 5.82e-11  1.28e-07     0s
  13   1.63268784e+10  1.63268784e+10  1.16e-10 5.82e-11  1.28e-10     0s

Barrier solved model in 13 iterations and 0.02 seconds
Optimal objective 1.63268784e+10

Optimize a model with 32 rows, 24 columns and 72 nonzeros
Model has 24 quadratic objective terms
Coefficient statistics:
  Matrix range    [1e+00, 1e+00]
  Objective range [2e+05, 1e+06]
  Bounds range    [0e+00, 0e+00]
  RHS range       [0e+00, 0e+00]
Presolve removed 25 rows and 0 columns
Presolve time: 0.00s
Presolved: 7 rows, 24 columns, 42 nonzeros
Presolved model has 24 quadratic objective terms
Ordering time: 0.00s

Barrier statistics:
 AA' NZ     : 9.000e+00
 Factor NZ  : 2.800e+01
 Factor Ops : 1.400e+02 (less than 1 second per iteration)
 Threads    : 1

                  Objective                Residual
Iter       Primal          Dual         Primal    Dual     Compl     Time
   0   3.16422880e+12  3.17199949e+12  0.00e+00 6.59e+05  9.30e+08     0s
   1   3.15894254e+12  3.17199111e+12  2.27e-13 6.51e+05  3.97e+08     0s
   2   2.98663315e+12  1.18908624e+11  1.52e-11 5.38e+05  2.44e+11     0s
   3   2.87429041e+12  2.25535209e+11  2.64e-11 5.26e+05  2.29e+11     0s
   4   1.75463735e+12  3.22576566e+11  4.66e-10 4.17e+05  1.98e+11     0s
   5   2.58931509e+11 -5.13053227e+11  4.66e-10 1.61e+05  1.56e+11     0s
   6   2.43934497e+10 -1.67576980e+11  1.16e-10 7.06e+03  1.32e+10     0s
   7   1.63290795e+10  1.34400547e+10  5.82e-11 6.31e-01  1.28e+08     0s
   8   1.63268784e+10  1.63238108e+10  1.16e-10 0.00e+00  1.28e+05     0s
   9   1.63268784e+10  1.63268753e+10  1.16e-10 0.00e+00  1.28e+02     0s
  10   1.63268784e+10  1.63268784e+10  1.16e-10 2.91e-11  1.28e-01     0s
  11   1.63268784e+10  1.63268784e+10  1.16e-10 1.16e-10  1.28e-04     0s
  12   1.63268784e+10  1.63268784e+10  2.33e-10 5.82e-11  1.28e-07     0s
  13   1.63268784e+10  1.63268784e+10  1.16e-10 5.82e-11  1.28e-10     0s

Barrier solved model in 13 iterations and 0.01 seconds
Optimal objective 1.63268784e+10

Optimize a model with 32 rows, 24 columns and 72 nonzeros
Model has 24 quadratic objective terms
Coefficient statistics:
  Matrix range    [1e+00, 1e+00]
  Objective range [2e+05, 1e+06]
  Bounds range    [0e+00, 0e+00]
  RHS range       [0e+00, 0e+00]
Presolve removed 25 rows and 0 columns
Presolve time: 0.01s
Presolved: 7 rows, 24 columns, 42 nonzeros
Presolved model has 24 quadratic objective terms
Ordering time: 0.00s

Barrier statistics:
 AA' NZ     : 9.000e+00
 Factor NZ  : 2.800e+01
 Factor Ops : 1.400e+02 (less than 1 second per iteration)
 Threads    : 1

                  Objective                Residual
Iter       Primal          Dual         Primal    Dual     Compl     Time
   0   3.16422880e+12  3.17199949e+12  0.00e+00 6.59e+05  9.30e+08     0s
   1   3.15894254e+12  3.17199111e+12  2.27e-13 6.51e+05  3.97e+08     0s
   2   2.98663315e+12  1.18908624e+11  1.52e-11 5.38e+05  2.44e+11     0s
   3   2.87429041e+12  2.25535209e+11  2.64e-11 5.26e+05  2.29e+11     0s
   4   1.75463735e+12  3.22576566e+11  4.66e-10 4.17e+05  1.98e+11     0s
   5   2.58931509e+11 -5.13053227e+11  4.66e-10 1.61e+05  1.56e+11     0s
   6   2.43934497e+10 -1.67576980e+11  1.16e-10 7.06e+03  1.32e+10     0s
   7   1.63290795e+10  1.34400547e+10  5.82e-11 6.31e-01  1.28e+08     0s
   8   1.63268784e+10  1.63238108e+10  1.16e-10 0.00e+00  1.28e+05     0s
   9   1.63268784e+10  1.63268753e+10  1.16e-10 0.00e+00  1.28e+02     0s
  10   1.63268784e+10  1.63268784e+10  1.16e-10 2.91e-11  1.28e-01     0s
  11   1.63268784e+10  1.63268784e+10  1.16e-10 1.16e-10  1.28e-04     0s
  12   1.63268784e+10  1.63268784e+10  2.33e-10 5.82e-11  1.28e-07     0s
  13   1.63268784e+10  1.63268784e+10  1.16e-10 5.82e-11  1.28e-10     0s

Barrier solved model in 13 iterations and 0.02 seconds
Optimal objective 1.63268784e+10

Optimize a model with 32 rows, 24 columns and 72 nonzeros
Model has 24 quadratic objective terms
Coefficient statistics:
  Matrix range    [1e+00, 1e+00]
  Objective range [2e+05, 1e+06]
  Bounds range    [0e+00, 0e+00]
  RHS range       [0e+00, 0e+00]
Presolve removed 25 rows and 0 columns
Presolve time: 0.00s
Presolved: 7 rows, 24 columns, 42 nonzeros
Presolved model has 24 quadratic objective terms
Ordering time: 0.00s

Barrier statistics:
 AA' NZ     : 9.000e+00
 Factor NZ  : 2.800e+01
 Factor Ops : 1.400e+02 (less than 1 second per iteration)
 Threads    : 1

                  Objective                Residual
Iter       Primal          Dual         Primal    Dual     Compl     Time
   0   3.16422880e+12  3.17199949e+12  0.00e+00 6.59e+05  9.30e+08     0s
   1   3.15894254e+12  3.17199111e+12  2.27e-13 6.51e+05  3.97e+08     0s
   2   2.98663315e+12  1.18908624e+11  1.52e-11 5.38e+05  2.44e+11     0s
   3   2.87429041e+12  2.25535209e+11  2.64e-11 5.26e+05  2.29e+11     0s
   4   1.75463735e+12  3.22576566e+11  4.66e-10 4.17e+05  1.98e+11     0s
   5   2.58931509e+11 -5.13053227e+11  4.66e-10 1.61e+05  1.56e+11     0s
   6   2.43934497e+10 -1.67576980e+11  1.16e-10 7.06e+03  1.32e+10     0s
   7   1.63290795e+10  1.34400547e+10  5.82e-11 6.31e-01  1.28e+08     0s
   8   1.63268784e+10  1.63238108e+10  1.16e-10 0.00e+00  1.28e+05     0s
   9   1.63268784e+10  1.63268753e+10  1.16e-10 0.00e+00  1.28e+02     0s
  10   1.63268784e+10  1.63268784e+10  1.16e-10 2.91e-11  1.28e-01     0s
  11   1.63268784e+10  1.63268784e+10  1.16e-10 1.16e-10  1.28e-04     0s
  12   1.63268784e+10  1.63268784e+10  2.33e-10 5.82e-11  1.28e-07     0s
  13   1.63268784e+10  1.63268784e+10  1.16e-10 5.82e-11  1.28e-10     0s

Barrier solved model in 13 iterations and 0.02 seconds
Optimal objective 1.63268784e+10

Optimize a model with 32 rows, 24 columns and 72 nonzeros
Model has 24 quadratic objective terms
Coefficient statistics:
  Matrix range    [1e+00, 1e+00]
  Objective range [2e+05, 1e+06]
  Bounds range    [0e+00, 0e+00]
  RHS range       [0e+00, 0e+00]
Presolve removed 25 rows and 0 columns
Presolve time: 0.00s
Presolved: 7 rows, 24 columns, 42 nonzeros
Presolved model has 24 quadratic objective terms
Ordering time: 0.00s

Barrier statistics:
 AA' NZ     : 9.000e+00
 Factor NZ  : 2.800e+01
 Factor Ops : 1.400e+02 (less than 1 second per iteration)
 Threads    : 1

                  Objective                Residual
Iter       Primal          Dual         Primal    Dual     Compl     Time
   0   3.16422880e+12  3.17199949e+12  0.00e+00 6.59e+05  9.30e+08     0s
   1   3.15894254e+12  3.17199111e+12  2.27e-13 6.51e+05  3.97e+08     0s
   2   2.98663315e+12  1.18908624e+11  1.52e-11 5.38e+05  2.44e+11     0s
   3   2.87429041e+12  2.25535209e+11  2.64e-11 5.26e+05  2.29e+11     0s
   4   1.75463735e+12  3.22576566e+11  4.66e-10 4.17e+05  1.98e+11     0s
   5   2.58931509e+11 -5.13053227e+11  4.66e-10 1.61e+05  1.56e+11     0s
   6   2.43934497e+10 -1.67576980e+11  1.16e-10 7.06e+03  1.32e+10     0s
   7   1.63290795e+10  1.34400547e+10  5.82e-11 6.31e-01  1.28e+08     0s
   8   1.63268784e+10  1.63238108e+10  1.16e-10 0.00e+00  1.28e+05     0s
   9   1.63268784e+10  1.63268753e+10  1.16e-10 0.00e+00  1.28e+02     0s
  10   1.63268784e+10  1.63268784e+10  1.16e-10 2.91e-11  1.28e-01     0s
  11   1.63268784e+10  1.63268784e+10  1.16e-10 1.16e-10  1.28e-04     0s
  12   1.63268784e+10  1.63268784e+10  2.33e-10 5.82e-11  1.28e-07     0s
  13   1.63268784e+10  1.63268784e+10  1.16e-10 5.82e-11  1.28e-10     0s

Barrier solved model in 13 iterations and 0.01 seconds
Optimal objective 1.63268784e+10

Optimize a model with 32 rows, 24 columns and 72 nonzeros
Model has 24 quadratic objective terms
Coefficient statistics:
  Matrix range    [1e+00, 1e+00]
  Objective range [2e+05, 1e+06]
  Bounds range    [0e+00, 0e+00]
  RHS range       [0e+00, 0e+00]
Presolve removed 25 rows and 0 columns
Presolve time: 0.00s
Presolved: 7 rows, 24 columns, 42 nonzeros
Presolved model has 24 quadratic objective terms
Ordering time: 0.00s

Barrier statistics:
 AA' NZ     : 9.000e+00
 Factor NZ  : 2.800e+01
 Factor Ops : 1.400e+02 (less than 1 second per iteration)
 Threads    : 1

                  Objective                Residual
Iter       Primal          Dual         Primal    Dual     Compl     Time
   0   3.16422880e+12  3.17199949e+12  0.00e+00 6.59e+05  9.30e+08     0s
   1   3.15894254e+12  3.17199111e+12  2.27e-13 6.51e+05  3.97e+08     0s
   2   2.98663315e+12  1.18908624e+11  1.52e-11 5.38e+05  2.44e+11     0s
   3   2.87429041e+12  2.25535209e+11  2.64e-11 5.26e+05  2.29e+11     0s
   4   1.75463735e+12  3.22576566e+11  4.66e-10 4.17e+05  1.98e+11     0s
   5   2.58931509e+11 -5.13053227e+11  4.66e-10 1.61e+05  1.56e+11     0s
   6   2.43934497e+10 -1.67576980e+11  1.16e-10 7.06e+03  1.32e+10     0s
   7   1.63290795e+10  1.34400547e+10  5.82e-11 6.31e-01  1.28e+08     0s
   8   1.63268784e+10  1.63238108e+10  1.16e-10 0.00e+00  1.28e+05     0s
   9   1.63268784e+10  1.63268753e+10  1.16e-10 0.00e+00  1.28e+02     0s
  10   1.63268784e+10  1.63268784e+10  1.16e-10 2.91e-11  1.28e-01     0s
  11   1.63268784e+10  1.63268784e+10  1.16e-10 1.16e-10  1.28e-04     0s
  12   1.63268784e+10  1.63268784e+10  2.33e-10 5.82e-11  1.28e-07     0s
  13   1.63268784e+10  1.63268784e+10  1.16e-10 5.82e-11  1.28e-10     0s

Barrier solved model in 13 iterations and 0.01 seconds
Optimal objective 1.63268784e+10


Gurobi 6.5.0 (linux64) logging started Fri Jan  8 23:23:34 2016


Gurobi 6.5.0 (linux64) logging started Sat Jan  9 11:57:04 2016


Gurobi 6.5.0 (linux64) logging started Sat Jan  9 13:59:37 2016


Gurobi 6.5.0 (linux64) logging started Sat Jan  9 15:27:44 2016


Gurobi 6.5.0 (linux64) logging started Sat Jan  9 15:36:53 2016


Gurobi 6.5.0 (linux64) logging started Sat Jan  9 15:51:38 2016


Gurobi 6.5.0 (linux64) logging started Sat Jan  9 16:00:03 2016


Gurobi 6.5.0 (linux64) logging started Sat Jan  9 16:09:08 2016


Gurobi 6.5.0 (linux64) logging started Sat Jan  9 16:16:52 2016


Gurobi 6.5.0 (linux64) logging started Tue Jan 12 18:45:11 2016


Gurobi 6.5.0 (linux64) logging started Tue Jan 12 18:48:00 2016


Gurobi 6.5.0 (linux64) logging started Tue Jan 12 18:49:49 2016


Gurobi 6.5.0 (linux64) logging started Tue Jan 12 18:52:48 2016

